24

1 8 24
2 1 10
3 19 21
4 14 16
5 21 18
6 17 13
7 12 2
8 23 20
9 12 10
10 7 12
11 5 16
12 24 18
13 20 12
14 8 12
15 14 14
16 5 4
17 14 18
18 2 19
19 15 13
20 21 4
21 14 9
22 20 24
23 7 8
24 17 24

273
